nN = 10;
nR = 50;
nH = 1;

a = [[11, 25, 12, 25, 16, 16, 25, 23, 20, 18, 10, 23, 24, 18, 25, 13, 21, 24, 14, 22, 23, 21, 12, 22, 15, 14, 14, 21, 15, 12, 11, 12, 17, 25, 12, 18, 18, 11, 16, 22, 18, 17, 22, 24, 12, 16, 22, 13, 18, 12], [17, 20, 24, 23, 16, 21, 14, 24, 12, 20, 22, 14, 23, 12, 23, 25, 11, 11, 13, 10, 23, 24, 15, 17, 16, 14, 21, 19, 18, 10, 11, 24, 21, 24, 12, 20, 14, 15, 15, 21, 12, 22, 18, 15, 10, 10, 22, 11, 16, 19], [12, 14, 23, 15, 20, 22, 21, 12, 13, 19, 20, 24, 12, 11, 23, 20, 17, 14, 25, 24, 18, 15, 14, 21, 12, 20, 13, 24, 13, 12, 20, 23, 12, 14, 23, 24, 21, 16, 10, 24, 14, 21, 19, 19, 19, 22, 24, 20, 14, 22], [13, 22, 11, 16, 25, 18, 24, 10, 15, 19, 19, 20, 25, 20, 23, 20, 20, 16, 16, 14, 21, 22, 12, 19, 13, 11, 24, 22, 19, 22, 21, 23, 21, 19, 21, 11, 23, 12, 14, 14, 20, 25, 20, 20, 12, 11, 19, 24, 13, 16], [18, 22, 18, 15, 21, 12, 22, 15, 24, 14, 21, 25, 16, 11, 17, 15, 11, 11, 17, 14, 15, 21, 22, 17, 17, 23, 20, 14, 24, 23, 16, 18, 24, 24, 18, 23, 22, 16, 23, 18, 24, 21, 19, 24, 20, 13, 16, 20, 20, 18], [14, 14, 15, 20, 12, 21, 12, 17, 13, 24, 11, 19, 15, 21, 22, 22, 11, 12, 14, 21, 25, 14, 21, 12, 15, 24, 12, 23, 22, 18, 11, 12, 25, 16, 11, 22, 23, 13, 11, 14, 13, 12, 21, 25, 24, 19, 16, 24, 24, 22], [13, 11, 19, 21, 12, 13, 10, 15, 25, 14, 17, 23, 10, 25, 14, 10, 12, 25, 22, 12, 19, 24, 20, 23, 11, 23, 17, 21, 11, 15, 25, 16, 14, 11, 15, 18, 12, 19, 18, 18, 17, 17, 21, 17, 11, 22, 15, 15, 13, 16], [24, 22, 18, 23, 13, 14, 14, 11, 15, 14, 21, 14, 17, 12, 19, 15, 17, 16, 22, 21, 11, 17, 23, 15, 19, 17, 24, 23, 25, 21, 20, 18, 20, 11, 11, 13, 21, 18, 11, 15, 16, 23, 10, 16, 11, 16, 15, 25, 19, 16], [15, 17, 11, 18, 23, 10, 16, 16, 23, 12, 20, 21, 25, 23, 16, 12, 10, 23, 22, 22, 17, 23, 21, 11, 12, 22, 21, 13, 14, 19, 20, 15, 17, 16, 18, 14, 16, 20, 14, 21, 12, 14, 19, 15, 16, 12, 17, 12, 20, 25], [15, 24, 11, 21, 22, 21, 16, 13, 16, 22, 11, 24, 23, 21, 25, 15, 11, 19, 24, 15, 13, 16, 21, 18, 12, 17, 18, 12, 24, 21, 24, 13, 23, 22, 21, 20, 13, 12, 23, 14, 18, 23, 15, 13, 13, 12, 12, 20, 11, 11]];
c = [[[0, 0, 0, 0, 0, 0, 0, 0, 0, 0, 0, 0, 0, 0, 0, 0, 0, 0, 0, 0, 0, 0, 0, 0, 0, 0, 0, 0, 0, 0, 0, 0, 0, 0, 0, 0, 0, 0, 0, 0, 0, 0, 0, 0, 0, 0, 0, 0, 0, 0], [37, 36, 50, 49, 45, 44, 47, 38, 34, 49, 34, 39, 48, 43, 47, 35, 49, 46, 31, 31, 38, 32, 36, 48, 48, 39, 40, 33, 49, 38, 34, 50, 49, 43, 31, 31, 48, 33, 42, 36, 50, 44, 48, 47, 39, 50, 34, 31, 47, 36], [33, 50, 43, 38, 48, 31, 50, 46, 47, 33, 35, 39, 34, 40, 44, 30, 38, 39, 32, 31, 40, 44, 45, 42, 39, 33, 44, 50, 48, 48, 42, 31, 36, 43, 33, 48, 40, 49, 47, 34, 47, 44, 48, 45, 39, 47, 33, 49, 40, 46], [40, 42, 34, 49, 31, 43, 45, 34, 45, 34, 46, 41, 32, 37, 33, 37, 45, 50, 50, 38, 47, 39, 40, 33, 50, 47, 35, 47, 43, 46, 41, 39, 45, 31, 46, 32, 41, 39, 32, 34, 32, 32, 38, 43, 32, 49, 48, 30, 35, 32], [42, 48, 49, 49, 43, 49, 40, 39, 34, 33, 34, 46, 42, 38, 38, 46, 40, 35, 35, 42, 33, 35, 37, 46, 33, 40, 31, 45, 50, 35, 49, 31, 39, 37, 50, 50, 34, 41, 48, 37, 44, 43, 31, 49, 39, 44, 36, 30, 32, 45], [37, 43, 40, 32, 35, 38, 45, 42, 35, 47, 38, 50, 43, 32, 37, 45, 33, 39, 46, 36, 39, 48, 47, 42, 49, 48, 49, 34, 40, 41, 48, 30, 42, 33, 31, 49, 38, 38, 38, 46, 39, 46, 39, 39, 33, 36, 49, 41, 43, 45], [37, 50, 34, 47, 41, 40, 50, 42, 36, 34, 30, 36, 31, 33, 39, 31, 44, 37, 39, 41, 32, 32, 50, 34, 32, 33, 43, 49, 42, 50, 41, 33, 42, 35, 49, 34, 49, 48, 36, 47, 45, 30, 36, 45, 40, 38, 40, 47, 33, 45], [46, 48, 35, 31, 48, 42, 32, 35, 43, 42, 40, 46, 30, 33, 37, 31, 40, 42, 34, 34, 49, 43, 38, 33, 47, 33, 39, 42, 34, 39, 34, 36, 49, 50, 43, 42, 43, 49, 45, 31, 36, 48, 30, 44, 30, 50, 40, 33, 45, 34], [42, 33, 39, 30, 41, 47, 34, 38, 31, 48, 37, 48, 31, 48, 45, 31, 39, 45, 34, 35, 47, 47, 44, 50, 48, 30, 44, 48, 35, 44, 37, 39, 46, 43, 42, 41, 50, 37, 46, 36, 48, 37, 42, 33, 40, 32, 35, 32, 46, 32], [32, 36, 36, 45, 49, 37, 48, 36, 50, 39, 39, 40, 50, 42, 35, 47, 36, 46, 33, 35, 43, 36, 41, 37, 48, 43, 31, 48, 45, 36, 36, 43, 35, 50, 31, 37, 43, 38, 31, 44, 38, 35, 44, 31, 35, 45, 42, 30, 34, 50]], [[0, 0, 0, 0, 0, 0, 0, 0, 0, 0, 0, 0, 0, 0, 0, 0, 0, 0, 0, 0, 0, 0, 0, 0, 0, 0, 0, 0, 0, 0, 0, 0, 0, 0, 0, 0, 0, 0, 0, 0, 0, 0, 0, 0, 0, 0, 0, 0, 0, 0], [0, 0, 0, 0, 0, 0, 0, 0, 0, 0, 0, 0, 0, 0, 0, 0, 0, 0, 0, 0, 0, 0, 0, 0, 0, 0, 0, 0, 0, 0, 0, 0, 0, 0, 0, 0, 0, 0, 0, 0, 0, 0, 0, 0, 0, 0, 0, 0, 0, 0], [47, 32, 44, 46, 37, 32, 41, 31, 42, 33, 44, 35, 42, 38, 48, 37, 37, 45, 49, 35, 40, 36, 30, 50, 43, 32, 34, 30, 30, 45, 40, 31, 33, 35, 39, 50, 48, 41, 40, 36, 49, 41, 32, 30, 30, 40, 50, 38, 43, 38], [36, 37, 48, 43, 50, 42, 49, 46, 43, 37, 47, 39, 33, 41, 42, 33, 46, 42, 33, 43, 50, 32, 41, 41, 34, 38, 43, 35, 37, 42, 36, 46, 30, 35, 46, 49, 46, 44, 43, 31, 39, 36, 50, 30, 37, 50, 32, 45, 41, 31], [46, 50, 49, 33, 39, 31, 42, 44, 33, 39, 39, 33, 46, 45, 45, 48, 33, 40, 34, 42, 46, 39, 37, 33, 48, 33, 48, 36, 33, 41, 41, 43, 40, 30, 48, 49, 45, 39, 45, 30, 45, 43, 45, 34, 32, 40, 39, 47, 45, 35], [41, 46, 49, 43, 40, 42, 43, 43, 39, 43, 50, 33, 33, 31, 44, 45, 42, 49, 40, 34, 49, 43, 43, 39, 50, 34, 34, 38, 33, 47, 39, 31, 30, 37, 35, 45, 34, 47, 48, 39, 49, 35, 50, 36, 43, 46, 42, 38, 42, 47], [30, 43, 36, 44, 42, 44, 37, 41, 33, 41, 42, 50, 30, 42, 31, 30, 49, 50, 35, 46, 41, 32, 47, 40, 34, 44, 37, 37, 36, 42, 43, 30, 38, 30, 40, 33, 42, 32, 35, 48, 31, 33, 34, 42, 35, 33, 46, 30, 40, 35], [30, 31, 42, 36, 33, 50, 42, 35, 45, 46, 49, 41, 31, 39, 50, 31, 42, 44, 40, 37, 35, 38, 40, 33, 31, 49, 32, 49, 43, 47, 47, 34, 41, 46, 40, 36, 33, 45, 47, 40, 33, 32, 35, 33, 34, 37, 47, 34, 31, 41], [34, 47, 36, 49, 48, 34, 34, 46, 40, 40, 31, 47, 45, 32, 50, 45, 39, 38, 36, 46, 40, 39, 40, 49, 44, 31, 30, 36, 41, 42, 46, 30, 48, 46, 45, 32, 32, 42, 37, 48, 31, 40, 43, 37, 38, 48, 47, 38, 49, 34], [45, 44, 34, 39, 32, 33, 36, 36, 41, 47, 33, 50, 33, 47, 38, 36, 44, 49, 35, 35, 46, 36, 42, 50, 40, 31, 32, 39, 39, 45, 47, 48, 41, 38, 38, 36, 42, 47, 35, 35, 50, 49, 40, 49, 49, 31, 48, 43, 48, 30]], [[0, 0, 0, 0, 0, 0, 0, 0, 0, 0, 0, 0, 0, 0, 0, 0, 0, 0, 0, 0, 0, 0, 0, 0, 0, 0, 0, 0, 0, 0, 0, 0, 0, 0, 0, 0, 0, 0, 0, 0, 0, 0, 0, 0, 0, 0, 0, 0, 0, 0], [0, 0, 0, 0, 0, 0, 0, 0, 0, 0, 0, 0, 0, 0, 0, 0, 0, 0, 0, 0, 0, 0, 0, 0, 0, 0, 0, 0, 0, 0, 0, 0, 0, 0, 0, 0, 0, 0, 0, 0, 0, 0, 0, 0, 0, 0, 0, 0, 0, 0], [0, 0, 0, 0, 0, 0, 0, 0, 0, 0, 0, 0, 0, 0, 0, 0, 0, 0, 0, 0, 0, 0, 0, 0, 0, 0, 0, 0, 0, 0, 0, 0, 0, 0, 0, 0, 0, 0, 0, 0, 0, 0, 0, 0, 0, 0, 0, 0, 0, 0], [42, 49, 48, 47, 47, 41, 45, 32, 33, 34, 34, 37, 35, 43, 31, 36, 42, 31, 33, 30, 35, 36, 35, 33, 50, 46, 44, 43, 43, 40, 31, 38, 49, 39, 39, 48, 42, 40, 37, 41, 40, 46, 49, 47, 41, 46, 30, 34, 41, 49], [37, 45, 49, 34, 44, 34, 41, 35, 45, 45, 31, 45, 43, 40, 45, 40, 38, 48, 30, 48, 46, 46, 43, 50, 44, 32, 35, 48, 38, 49, 30, 42, 31, 43, 31, 50, 32, 35, 37, 40, 50, 44, 37, 30, 39, 41, 36, 33, 33, 36], [44, 45, 33, 43, 44, 49, 38, 38, 36, 42, 36, 46, 48, 33, 34, 33, 36, 49, 41, 30, 48, 34, 43, 50, 47, 43, 40, 47, 32, 41, 34, 39, 36, 37, 38, 50, 34, 38, 38, 32, 37, 44, 49, 47, 39, 46, 37, 48, 30, 33], [43, 38, 30, 40, 49, 41, 31, 47, 34, 46, 41, 32, 33, 32, 42, 40, 30, 31, 37, 41, 33, 42, 49, 34, 32, 36, 34, 47, 39, 34, 30, 49, 31, 47, 41, 38, 35, 32, 43, 38, 47, 31, 36, 38, 38, 48, 43, 34, 31, 34], [42, 49, 41, 36, 38, 37, 34, 35, 50, 33, 39, 37, 31, 33, 47, 40, 40, 34, 37, 45, 49, 46, 42, 40, 31, 30, 34, 37, 43, 41, 45, 50, 50, 44, 34, 39, 48, 43, 32, 34, 30, 43, 39, 32, 41, 34, 45, 38, 31, 38], [37, 39, 40, 44, 36, 47, 45, 49, 44, 36, 48, 36, 35, 31, 47, 30, 33, 47, 36, 32, 48, 31, 36, 38, 32, 30, 38, 49, 38, 34, 34, 48, 48, 36, 35, 36, 30, 32, 37, 37, 30, 41, 49, 41, 44, 46, 31, 44, 44, 30], [50, 45, 31, 46, 40, 49, 38, 46, 37, 40, 45, 36, 34, 49, 32, 48, 50, 39, 47, 48, 39, 39, 43, 44, 37, 33, 47, 36, 45, 40, 39, 31, 32, 42, 30, 47, 39, 42, 36, 33, 50, 31, 33, 32, 34, 50, 34, 49, 49, 39]], [[0, 0, 0, 0, 0, 0, 0, 0, 0, 0, 0, 0, 0, 0, 0, 0, 0, 0, 0, 0, 0, 0, 0, 0, 0, 0, 0, 0, 0, 0, 0, 0, 0, 0, 0, 0, 0, 0, 0, 0, 0, 0, 0, 0, 0, 0, 0, 0, 0, 0], [0, 0, 0, 0, 0, 0, 0, 0, 0, 0, 0, 0, 0, 0, 0, 0, 0, 0, 0, 0, 0, 0, 0, 0, 0, 0, 0, 0, 0, 0, 0, 0, 0, 0, 0, 0, 0, 0, 0, 0, 0, 0, 0, 0, 0, 0, 0, 0, 0, 0], [0, 0, 0, 0, 0, 0, 0, 0, 0, 0, 0, 0, 0, 0, 0, 0, 0, 0, 0, 0, 0, 0, 0, 0, 0, 0, 0, 0, 0, 0, 0, 0, 0, 0, 0, 0, 0, 0, 0, 0, 0, 0, 0, 0, 0, 0, 0, 0, 0, 0], [0, 0, 0, 0, 0, 0, 0, 0, 0, 0, 0, 0, 0, 0, 0, 0, 0, 0, 0, 0, 0, 0, 0, 0, 0, 0, 0, 0, 0, 0, 0, 0, 0, 0, 0, 0, 0, 0, 0, 0, 0, 0, 0, 0, 0, 0, 0, 0, 0, 0], [46, 46, 45, 30, 44, 32, 43, 41, 36, 38, 47, 49, 41, 39, 31, 47, 50, 35, 40, 31, 50, 36, 42, 32, 48, 47, 34, 46, 33, 34, 43, 49, 34, 36, 47, 35, 44, 32, 30, 48, 50, 41, 37, 46, 49, 34, 42, 47, 44, 35], [39, 33, 46, 39, 37, 36, 48, 40, 44, 36, 30, 45, 40, 36, 39, 32, 45, 36, 37, 40, 47, 50, 35, 45, 42, 32, 34, 39, 48, 32, 50, 38, 39, 49, 30, 42, 33, 44, 30, 44, 35, 34, 35, 45, 37, 38, 36, 39, 48, 50], [34, 30, 49, 42, 32, 31, 31, 34, 39, 31, 31, 38, 42, 37, 50, 45, 34, 48, 47, 38, 43, 50, 35, 37, 38, 47, 45, 41, 41, 40, 31, 46, 38, 31, 40, 39, 35, 47, 48, 35, 50, 38, 40, 40, 42, 35, 30, 34, 42, 38], [42, 34, 46, 34, 37, 31, 49, 35, 34, 32, 30, 43, 45, 48, 43, 34, 43, 32, 35, 36, 38, 36, 47, 46, 36, 44, 43, 37, 37, 48, 33, 39, 47, 31, 46, 46, 48, 48, 47, 46, 34, 41, 40, 38, 35, 32, 34, 43, 49, 45], [42, 36, 48, 42, 30, 45, 36, 45, 38, 36, 33, 32, 49, 30, 49, 40, 34, 31, 40, 31, 47, 33, 43, 43, 47, 33, 33, 46, 46, 36, 34, 40, 33, 39, 46, 39, 47, 43, 50, 42, 35, 46, 42, 35, 38, 50, 39, 39, 37, 32], [32, 37, 40, 50, 35, 35, 46, 42, 35, 47, 42, 39, 49, 38, 38, 38, 38, 48, 34, 49, 43, 41, 43, 33, 41, 36, 48, 44, 40, 34, 34, 41, 32, 45, 45, 30, 37, 40, 50, 38, 48, 47, 43, 42, 48, 43, 39, 45, 34, 31]], [[0, 0, 0, 0, 0, 0, 0, 0, 0, 0, 0, 0, 0, 0, 0, 0, 0, 0, 0, 0, 0, 0, 0, 0, 0, 0, 0, 0, 0, 0, 0, 0, 0, 0, 0, 0, 0, 0, 0, 0, 0, 0, 0, 0, 0, 0, 0, 0, 0, 0], [0, 0, 0, 0, 0, 0, 0, 0, 0, 0, 0, 0, 0, 0, 0, 0, 0, 0, 0, 0, 0, 0, 0, 0, 0, 0, 0, 0, 0, 0, 0, 0, 0, 0, 0, 0, 0, 0, 0, 0, 0, 0, 0, 0, 0, 0, 0, 0, 0, 0], [0, 0, 0, 0, 0, 0, 0, 0, 0, 0, 0, 0, 0, 0, 0, 0, 0, 0, 0, 0, 0, 0, 0, 0, 0, 0, 0, 0, 0, 0, 0, 0, 0, 0, 0, 0, 0, 0, 0, 0, 0, 0, 0, 0, 0, 0, 0, 0, 0, 0], [0, 0, 0, 0, 0, 0, 0, 0, 0, 0, 0, 0, 0, 0, 0, 0, 0, 0, 0, 0, 0, 0, 0, 0, 0, 0, 0, 0, 0, 0, 0, 0, 0, 0, 0, 0, 0, 0, 0, 0, 0, 0, 0, 0, 0, 0, 0, 0, 0, 0], [0, 0, 0, 0, 0, 0, 0, 0, 0, 0, 0, 0, 0, 0, 0, 0, 0, 0, 0, 0, 0, 0, 0, 0, 0, 0, 0, 0, 0, 0, 0, 0, 0, 0, 0, 0, 0, 0, 0, 0, 0, 0, 0, 0, 0, 0, 0, 0, 0, 0], [45, 36, 38, 34, 44, 39, 39, 39, 45, 50, 42, 30, 46, 48, 31, 43, 39, 46, 41, 38, 36, 30, 48, 42, 35, 42, 37, 46, 41, 50, 33, 41, 34, 45, 48, 49, 46, 40, 44, 38, 40, 40, 35, 44, 33, 38, 34, 35, 47, 46], [35, 37, 33, 45, 31, 46, 43, 30, 30, 49, 45, 44, 42, 34, 47, 39, 39, 37, 35, 35, 40, 31, 46, 41, 39, 37, 43, 48, 47, 34, 36, 45, 48, 49, 44, 47, 43, 43, 45, 35, 50, 35, 40, 32, 47, 42, 49, 31, 32, 37], [49, 31, 39, 30, 44, 49, 36, 46, 32, 33, 46, 37, 47, 36, 46, 47, 34, 50, 48, 37, 48, 45, 39, 34, 42, 45, 35, 46, 49, 45, 45, 41, 41, 32, 38, 48, 45, 45, 36, 32, 42, 37, 46, 45, 34, 32, 37, 30, 49, 50], [42, 50, 49, 31, 46, 32, 34, 49, 43, 45, 50, 49, 48, 42, 42, 38, 31, 45, 40, 36, 42, 33, 44, 30, 35, 45, 42, 42, 45, 32, 31, 32, 47, 46, 41, 33, 49, 50, 34, 47, 40, 49, 35, 43, 37, 32, 30, 49, 37, 50], [32, 32, 36, 33, 42, 37, 40, 30, 32, 49, 41, 31, 39, 46, 48, 35, 43, 45, 30, 35, 38, 42, 31, 40, 37, 37, 38, 40, 37, 41, 45, 38, 49, 32, 36, 41, 43, 50, 33, 36, 36, 37, 41, 38, 35, 32, 50, 48, 36, 32]], [[0, 0, 0, 0, 0, 0, 0, 0, 0, 0, 0, 0, 0, 0, 0, 0, 0, 0, 0, 0, 0, 0, 0, 0, 0, 0, 0, 0, 0, 0, 0, 0, 0, 0, 0, 0, 0, 0, 0, 0, 0, 0, 0, 0, 0, 0, 0, 0, 0, 0], [0, 0, 0, 0, 0, 0, 0, 0, 0, 0, 0, 0, 0, 0, 0, 0, 0, 0, 0, 0, 0, 0, 0, 0, 0, 0, 0, 0, 0, 0, 0, 0, 0, 0, 0, 0, 0, 0, 0, 0, 0, 0, 0, 0, 0, 0, 0, 0, 0, 0], [0, 0, 0, 0, 0, 0, 0, 0, 0, 0, 0, 0, 0, 0, 0, 0, 0, 0, 0, 0, 0, 0, 0, 0, 0, 0, 0, 0, 0, 0, 0, 0, 0, 0, 0, 0, 0, 0, 0, 0, 0, 0, 0, 0, 0, 0, 0, 0, 0, 0], [0, 0, 0, 0, 0, 0, 0, 0, 0, 0, 0, 0, 0, 0, 0, 0, 0, 0, 0, 0, 0, 0, 0, 0, 0, 0, 0, 0, 0, 0, 0, 0, 0, 0, 0, 0, 0, 0, 0, 0, 0, 0, 0, 0, 0, 0, 0, 0, 0, 0], [0, 0, 0, 0, 0, 0, 0, 0, 0, 0, 0, 0, 0, 0, 0, 0, 0, 0, 0, 0, 0, 0, 0, 0, 0, 0, 0, 0, 0, 0, 0, 0, 0, 0, 0, 0, 0, 0, 0, 0, 0, 0, 0, 0, 0, 0, 0, 0, 0, 0], [0, 0, 0, 0, 0, 0, 0, 0, 0, 0, 0, 0, 0, 0, 0, 0, 0, 0, 0, 0, 0, 0, 0, 0, 0, 0, 0, 0, 0, 0, 0, 0, 0, 0, 0, 0, 0, 0, 0, 0, 0, 0, 0, 0, 0, 0, 0, 0, 0, 0], [45, 42, 45, 42, 47, 30, 32, 39, 43, 36, 32, 36, 39, 43, 33, 46, 33, 40, 34, 36, 39, 46, 43, 50, 38, 33, 41, 46, 47, 46, 37, 31, 46, 36, 34, 40, 31, 34, 42, 36, 36, 49, 33, 38, 35, 31, 39, 47, 33, 31], [44, 50, 39, 35, 49, 49, 38, 41, 50, 43, 33, 48, 36, 46, 40, 49, 38, 34, 31, 36, 39, 35, 43, 50, 32, 43, 36, 34, 41, 34, 43, 33, 33, 44, 50, 30, 39, 31, 45, 34, 42, 30, 30, 37, 36, 38, 44, 30, 39, 46], [46, 41, 47, 50, 50, 43, 50, 50, 31, 34, 45, 48, 34, 32, 49, 42, 40, 41, 36, 42, 32, 47, 47, 38, 36, 36, 33, 44, 33, 42, 45, 48, 36, 46, 37, 30, 34, 31, 33, 36, 44, 49, 46, 43, 37, 44, 40, 42, 32, 46], [47, 40, 49, 41, 35, 43, 38, 38, 49, 40, 46, 39, 47, 36, 45, 49, 35, 47, 34, 48, 46, 48, 48, 34, 43, 44, 37, 46, 36, 36, 37, 41, 36, 30, 35, 36, 33, 48, 30, 44, 37, 45, 33, 37, 31, 45, 37, 34, 47, 46]], [[0, 0, 0, 0, 0, 0, 0, 0, 0, 0, 0, 0, 0, 0, 0, 0, 0, 0, 0, 0, 0, 0, 0, 0, 0, 0, 0, 0, 0, 0, 0, 0, 0, 0, 0, 0, 0, 0, 0, 0, 0, 0, 0, 0, 0, 0, 0, 0, 0, 0], [0, 0, 0, 0, 0, 0, 0, 0, 0, 0, 0, 0, 0, 0, 0, 0, 0, 0, 0, 0, 0, 0, 0, 0, 0, 0, 0, 0, 0, 0, 0, 0, 0, 0, 0, 0, 0, 0, 0, 0, 0, 0, 0, 0, 0, 0, 0, 0, 0, 0], [0, 0, 0, 0, 0, 0, 0, 0, 0, 0, 0, 0, 0, 0, 0, 0, 0, 0, 0, 0, 0, 0, 0, 0, 0, 0, 0, 0, 0, 0, 0, 0, 0, 0, 0, 0, 0, 0, 0, 0, 0, 0, 0, 0, 0, 0, 0, 0, 0, 0], [0, 0, 0, 0, 0, 0, 0, 0, 0, 0, 0, 0, 0, 0, 0, 0, 0, 0, 0, 0, 0, 0, 0, 0, 0, 0, 0, 0, 0, 0, 0, 0, 0, 0, 0, 0, 0, 0, 0, 0, 0, 0, 0, 0, 0, 0, 0, 0, 0, 0], [0, 0, 0, 0, 0, 0, 0, 0, 0, 0, 0, 0, 0, 0, 0, 0, 0, 0, 0, 0, 0, 0, 0, 0, 0, 0, 0, 0, 0, 0, 0, 0, 0, 0, 0, 0, 0, 0, 0, 0, 0, 0, 0, 0, 0, 0, 0, 0, 0, 0], [0, 0, 0, 0, 0, 0, 0, 0, 0, 0, 0, 0, 0, 0, 0, 0, 0, 0, 0, 0, 0, 0, 0, 0, 0, 0, 0, 0, 0, 0, 0, 0, 0, 0, 0, 0, 0, 0, 0, 0, 0, 0, 0, 0, 0, 0, 0, 0, 0, 0], [0, 0, 0, 0, 0, 0, 0, 0, 0, 0, 0, 0, 0, 0, 0, 0, 0, 0, 0, 0, 0, 0, 0, 0, 0, 0, 0, 0, 0, 0, 0, 0, 0, 0, 0, 0, 0, 0, 0, 0, 0, 0, 0, 0, 0, 0, 0, 0, 0, 0], [49, 30, 32, 48, 48, 33, 35, 47, 37, 44, 30, 35, 31, 45, 47, 42, 41, 42, 41, 45, 49, 37, 31, 42, 43, 44, 49, 38, 32, 30, 46, 43, 45, 32, 35, 47, 38, 37, 38, 33, 46, 44, 47, 49, 48, 44, 48, 43, 47, 44], [43, 49, 38, 38, 39, 43, 45, 32, 50, 47, 35, 46, 47, 46, 45, 46, 30, 47, 34, 39, 45, 33, 30, 38, 36, 31, 35, 47, 33, 46, 45, 32, 39, 43, 36, 43, 42, 31, 45, 35, 36, 45, 38, 44, 49, 36, 38, 30, 40, 42], [45, 39, 48, 32, 47, 30, 50, 33, 35, 33, 48, 41, 30, 31, 39, 38, 45, 38, 30, 38, 39, 46, 31, 44, 41, 42, 37, 37, 30, 34, 32, 38, 36, 36, 32, 32, 32, 43, 46, 33, 34, 35, 34, 33, 30, 34, 30, 40, 37, 37]], [[0, 0, 0, 0, 0, 0, 0, 0, 0, 0, 0, 0, 0, 0, 0, 0, 0, 0, 0, 0, 0, 0, 0, 0, 0, 0, 0, 0, 0, 0, 0, 0, 0, 0, 0, 0, 0, 0, 0, 0, 0, 0, 0, 0, 0, 0, 0, 0, 0, 0], [0, 0, 0, 0, 0, 0, 0, 0, 0, 0, 0, 0, 0, 0, 0, 0, 0, 0, 0, 0, 0, 0, 0, 0, 0, 0, 0, 0, 0, 0, 0, 0, 0, 0, 0, 0, 0, 0, 0, 0, 0, 0, 0, 0, 0, 0, 0, 0, 0, 0], [0, 0, 0, 0, 0, 0, 0, 0, 0, 0, 0, 0, 0, 0, 0, 0, 0, 0, 0, 0, 0, 0, 0, 0, 0, 0, 0, 0, 0, 0, 0, 0, 0, 0, 0, 0, 0, 0, 0, 0, 0, 0, 0, 0, 0, 0, 0, 0, 0, 0], [0, 0, 0, 0, 0, 0, 0, 0, 0, 0, 0, 0, 0, 0, 0, 0, 0, 0, 0, 0, 0, 0, 0, 0, 0, 0, 0, 0, 0, 0, 0, 0, 0, 0, 0, 0, 0, 0, 0, 0, 0, 0, 0, 0, 0, 0, 0, 0, 0, 0], [0, 0, 0, 0, 0, 0, 0, 0, 0, 0, 0, 0, 0, 0, 0, 0, 0, 0, 0, 0, 0, 0, 0, 0, 0, 0, 0, 0, 0, 0, 0, 0, 0, 0, 0, 0, 0, 0, 0, 0, 0, 0, 0, 0, 0, 0, 0, 0, 0, 0], [0, 0, 0, 0, 0, 0, 0, 0, 0, 0, 0, 0, 0, 0, 0, 0, 0, 0, 0, 0, 0, 0, 0, 0, 0, 0, 0, 0, 0, 0, 0, 0, 0, 0, 0, 0, 0, 0, 0, 0, 0, 0, 0, 0, 0, 0, 0, 0, 0, 0], [0, 0, 0, 0, 0, 0, 0, 0, 0, 0, 0, 0, 0, 0, 0, 0, 0, 0, 0, 0, 0, 0, 0, 0, 0, 0, 0, 0, 0, 0, 0, 0, 0, 0, 0, 0, 0, 0, 0, 0, 0, 0, 0, 0, 0, 0, 0, 0, 0, 0], [0, 0, 0, 0, 0, 0, 0, 0, 0, 0, 0, 0, 0, 0, 0, 0, 0, 0, 0, 0, 0, 0, 0, 0, 0, 0, 0, 0, 0, 0, 0, 0, 0, 0, 0, 0, 0, 0, 0, 0, 0, 0, 0, 0, 0, 0, 0, 0, 0, 0], [36, 48, 44, 32, 48, 37, 45, 38, 39, 47, 46, 33, 34, 34, 31, 47, 42, 50, 30, 40, 46, 34, 30, 40, 48, 33, 37, 36, 32, 50, 33, 36, 48, 30, 43, 38, 38, 50, 36, 35, 48, 50, 36, 47, 37, 49, 30, 39, 46, 37], [33, 48, 33, 46, 31, 41, 44, 33, 41, 45, 47, 43, 47, 49, 45, 32, 35, 42, 34, 37, 47, 44, 44, 36, 50, 43, 34, 45, 36, 49, 44, 42, 39, 37, 34, 34, 33, 45, 35, 50, 36, 49, 37, 32, 50, 41, 39, 50, 45, 44]], [[0, 0, 0, 0, 0, 0, 0, 0, 0, 0, 0, 0, 0, 0, 0, 0, 0, 0, 0, 0, 0, 0, 0, 0, 0, 0, 0, 0, 0, 0, 0, 0, 0, 0, 0, 0, 0, 0, 0, 0, 0, 0, 0, 0, 0, 0, 0, 0, 0, 0], [0, 0, 0, 0, 0, 0, 0, 0, 0, 0, 0, 0, 0, 0, 0, 0, 0, 0, 0, 0, 0, 0, 0, 0, 0, 0, 0, 0, 0, 0, 0, 0, 0, 0, 0, 0, 0, 0, 0, 0, 0, 0, 0, 0, 0, 0, 0, 0, 0, 0], [0, 0, 0, 0, 0, 0, 0, 0, 0, 0, 0, 0, 0, 0, 0, 0, 0, 0, 0, 0, 0, 0, 0, 0, 0, 0, 0, 0, 0, 0, 0, 0, 0, 0, 0, 0, 0, 0, 0, 0, 0, 0, 0, 0, 0, 0, 0, 0, 0, 0], [0, 0, 0, 0, 0, 0, 0, 0, 0, 0, 0, 0, 0, 0, 0, 0, 0, 0, 0, 0, 0, 0, 0, 0, 0, 0, 0, 0, 0, 0, 0, 0, 0, 0, 0, 0, 0, 0, 0, 0, 0, 0, 0, 0, 0, 0, 0, 0, 0, 0], [0, 0, 0, 0, 0, 0, 0, 0, 0, 0, 0, 0, 0, 0, 0, 0, 0, 0, 0, 0, 0, 0, 0, 0, 0, 0, 0, 0, 0, 0, 0, 0, 0, 0, 0, 0, 0, 0, 0, 0, 0, 0, 0, 0, 0, 0, 0, 0, 0, 0], [0, 0, 0, 0, 0, 0, 0, 0, 0, 0, 0, 0, 0, 0, 0, 0, 0, 0, 0, 0, 0, 0, 0, 0, 0, 0, 0, 0, 0, 0, 0, 0, 0, 0, 0, 0, 0, 0, 0, 0, 0, 0, 0, 0, 0, 0, 0, 0, 0, 0], [0, 0, 0, 0, 0, 0, 0, 0, 0, 0, 0, 0, 0, 0, 0, 0, 0, 0, 0, 0, 0, 0, 0, 0, 0, 0, 0, 0, 0, 0, 0, 0, 0, 0, 0, 0, 0, 0, 0, 0, 0, 0, 0, 0, 0, 0, 0, 0, 0, 0], [0, 0, 0, 0, 0, 0, 0, 0, 0, 0, 0, 0, 0, 0, 0, 0, 0, 0, 0, 0, 0, 0, 0, 0, 0, 0, 0, 0, 0, 0, 0, 0, 0, 0, 0, 0, 0, 0, 0, 0, 0, 0, 0, 0, 0, 0, 0, 0, 0, 0], [0, 0, 0, 0, 0, 0, 0, 0, 0, 0, 0, 0, 0, 0, 0, 0, 0, 0, 0, 0, 0, 0, 0, 0, 0, 0, 0, 0, 0, 0, 0, 0, 0, 0, 0, 0, 0, 0, 0, 0, 0, 0, 0, 0, 0, 0, 0, 0, 0, 0], [41, 33, 36, 47, 34, 44, 38, 37, 40, 43, 30, 39, 36, 48, 31, 31, 36, 33, 39, 37, 45, 41, 32, 49, 30, 45, 38, 39, 34, 46, 41, 43, 38, 37, 31, 35, 49, 32, 50, 47, 36, 41, 42, 31, 50, 34, 50, 42, 46, 44]], [[0, 0, 0, 0, 0, 0, 0, 0, 0, 0, 0, 0, 0, 0, 0, 0, 0, 0, 0, 0, 0, 0, 0, 0, 0, 0, 0, 0, 0, 0, 0, 0, 0, 0, 0, 0, 0, 0, 0, 0, 0, 0, 0, 0, 0, 0, 0, 0, 0, 0], [0, 0, 0, 0, 0, 0, 0, 0, 0, 0, 0, 0, 0, 0, 0, 0, 0, 0, 0, 0, 0, 0, 0, 0, 0, 0, 0, 0, 0, 0, 0, 0, 0, 0, 0, 0, 0, 0, 0, 0, 0, 0, 0, 0, 0, 0, 0, 0, 0, 0], [0, 0, 0, 0, 0, 0, 0, 0, 0, 0, 0, 0, 0, 0, 0, 0, 0, 0, 0, 0, 0, 0, 0, 0, 0, 0, 0, 0, 0, 0, 0, 0, 0, 0, 0, 0, 0, 0, 0, 0, 0, 0, 0, 0, 0, 0, 0, 0, 0, 0], [0, 0, 0, 0, 0, 0, 0, 0, 0, 0, 0, 0, 0, 0, 0, 0, 0, 0, 0, 0, 0, 0, 0, 0, 0, 0, 0, 0, 0, 0, 0, 0, 0, 0, 0, 0, 0, 0, 0, 0, 0, 0, 0, 0, 0, 0, 0, 0, 0, 0], [0, 0, 0, 0, 0, 0, 0, 0, 0, 0, 0, 0, 0, 0, 0, 0, 0, 0, 0, 0, 0, 0, 0, 0, 0, 0, 0, 0, 0, 0, 0, 0, 0, 0, 0, 0, 0, 0, 0, 0, 0, 0, 0, 0, 0, 0, 0, 0, 0, 0], [0, 0, 0, 0, 0, 0, 0, 0, 0, 0, 0, 0, 0, 0, 0, 0, 0, 0, 0, 0, 0, 0, 0, 0, 0, 0, 0, 0, 0, 0, 0, 0, 0, 0, 0, 0, 0, 0, 0, 0, 0, 0, 0, 0, 0, 0, 0, 0, 0, 0], [0, 0, 0, 0, 0, 0, 0, 0, 0, 0, 0, 0, 0, 0, 0, 0, 0, 0, 0, 0, 0, 0, 0, 0, 0, 0, 0, 0, 0, 0, 0, 0, 0, 0, 0, 0, 0, 0, 0, 0, 0, 0, 0, 0, 0, 0, 0, 0, 0, 0], [0, 0, 0, 0, 0, 0, 0, 0, 0, 0, 0, 0, 0, 0, 0, 0, 0, 0, 0, 0, 0, 0, 0, 0, 0, 0, 0, 0, 0, 0, 0, 0, 0, 0, 0, 0, 0, 0, 0, 0, 0, 0, 0, 0, 0, 0, 0, 0, 0, 0], [0, 0, 0, 0, 0, 0, 0, 0, 0, 0, 0, 0, 0, 0, 0, 0, 0, 0, 0, 0, 0, 0, 0, 0, 0, 0, 0, 0, 0, 0, 0, 0, 0, 0, 0, 0, 0, 0, 0, 0, 0, 0, 0, 0, 0, 0, 0, 0, 0, 0], [0, 0, 0, 0, 0, 0, 0, 0, 0, 0, 0, 0, 0, 0, 0, 0, 0, 0, 0, 0, 0, 0, 0, 0, 0, 0, 0, 0, 0, 0, 0, 0, 0, 0, 0, 0, 0, 0, 0, 0, 0, 0, 0, 0, 0, 0, 0, 0, 0, 0]]];

q = [[[11], [7], [14], [25], [13], [19], [7], [19], [7], [18], [11], [14], [15], [15], [5], [6], [5], [17], [8], [16], [12], [25], [19], [20], [10], [23], [6], [6], [24], [16], [7], [21], [17], [14], [13], [11], [25], [6], [24], [17], [14], [19], [22], [13], [7], [18], [14], [21], [14], [8]], [[20], [10], [24], [17], [18], [12], [20], [22], [8], [9], [8], [16], [12], [6], [12], [22], [8], [22], [11], [10], [13], [9], [9], [17], [11], [9], [15], [21], [24], [17], [10], [10], [18], [20], [15], [12], [20], [14], [25], [21], [22], [23], [6], [19], [15], [20], [25], [15], [10], [11]], [[22], [8], [19], [10], [6], [12], [8], [19], [13], [13], [18], [5], [24], [22], [13], [18], [19], [13], [23], [23], [23], [15], [16], [23], [9], [10], [15], [22], [20], [16], [23], [22], [19], [25], [5], [16], [20], [14], [13], [12], [18], [19], [21], [20], [6], [9], [23], [14], [25], [17]], [[15], [13], [13], [8], [8], [18], [20], [25], [22], [18], [22], [16], [11], [23], [13], [16], [18], [8], [10], [16], [19], [9], [8], [7], [23], [20], [18], [13], [21], [11], [25], [10], [10], [6], [7], [18], [6], [12], [22], [20], [18], [22], [8], [5], [19], [23], [24], [10], [17], [24]], [[17], [19], [13], [10], [10], [17], [8], [11], [22], [13], [19], [18], [22], [12], [9], [20], [20], [15], [9], [19], [6], [23], [13], [5], [11], [8], [23], [5], [7], [20], [24], [5], [19], [15], [8], [15], [7], [19], [16], [17], [9], [11], [18], [12], [21], [10], [21], [23], [21], [12]], [[19], [22], [23], [24], [18], [17], [16], [21], [8], [17], [9], [5], [9], [8], [22], [9], [10], [14], [5], [10], [25], [5], [8], [22], [22], [17], [8], [5], [18], [7], [24], [13], [22], [19], [5], [24], [19], [5], [23], [9], [9], [23], [22], [8], [24], [18], [21], [18], [18], [11]], [[23], [7], [20], [15], [6], [9], [16], [7], [5], [25], [7], [16], [10], [18], [13], [6], [14], [19], [17], [18], [15], [8], [22], [20], [10], [8], [5], [10], [14], [17], [11], [11], [14], [18], [6], [12], [8], [24], [13], [19], [12], [7], [13], [8], [7], [21], [6], [15], [7], [20]], [[8], [6], [11], [15], [21], [18], [18], [11], [16], [15], [25], [7], [14], [22], [8], [23], [23], [6], [19], [17], [22], [21], [11], [11], [7], [16], [8], [22], [11], [19], [13], [7], [7], [8], [9], [5], [6], [14], [16], [22], [24], [16], [10], [20], [8], [11], [6], [16], [8], [11]], [[21], [16], [18], [12], [9], [22], [6], [6], [20], [9], [7], [10], [19], [17], [24], [6], [8], [10], [14], [17], [20], [12], [7], [15], [13], [11], [22], [6], [6], [23], [15], [8], [18], [8], [15], [22], [19], [24], [15], [22], [14], [21], [7], [21], [23], [16], [25], [8], [25], [19]], [[6], [7], [7], [13], [6], [7], [7], [8], [19], [15], [18], [25], [14], [24], [11], [15], [9], [8], [16], [6], [16], [6], [8], [17], [13], [7], [14], [17], [16], [13], [11], [20], [12], [6], [18], [6], [19], [9], [23], [5], [21], [23], [25], [14], [19], [16], [20], [20], [18], [18]]];
Q = [[69], [66], [68], [68], [69], [57], [61], [65], [61], [58]];
